(declare-fun temp934_1 () (_ BitVec 64))
(declare-fun var267855 () (_ BitVec 64))
(declare-fun k!0 () Bool)
(declare-fun ARGNAME_input_NAMEEND_DIM () (_ BitVec 64))
(declare-fun ARGNAME_target_NAMEEND_DIM () (_ BitVec 64))
(declare-fun temp934_2 () (_ BitVec 64))
(declare-fun ARGNAME_label_smoothing_NAMEEND () (_ BitVec 64))
(declare-fun var70865 () (_ BitVec 64))
(declare-fun temp934_3 () (_ BitVec 64))
(declare-fun temp934_4 () (_ BitVec 64))
(declare-fun var70867 () (_ BitVec 64))
(declare-fun temp934_5 () (_ BitVec 64))
(declare-fun temp934_6 () (_ BitVec 64))
(declare-fun var921507 () (_ BitVec 64))
(declare-fun var921510 () (_ BitVec 64))
(declare-fun var1117505 () (_ BitVec 64))
(declare-fun temp934_8 () (_ BitVec 64))
(declare-fun temp934_7 () (_ BitVec 64))
(declare-fun temp934_9 () (_ BitVec 64))
(declare-fun var917872 () (_ BitVec 64))
(declare-fun temp934_10 () (_ BitVec 64))
(declare-fun temp934_11 () (_ BitVec 64))
(declare-fun ARGNAME_weight_NAMEEND_DIMSIZE
             ()
             (Array (_ BitVec 64) (_ BitVec 64)))
(declare-fun temp934_12 () (_ BitVec 64))
(declare-fun temp934_13 () (_ BitVec 64))
(declare-fun temp934_14 () (_ BitVec 64))
(declare-fun temp934_15 () (_ BitVec 64))
(declare-fun temp934_16 () (_ BitVec 64))
(declare-fun temp934_17 () (_ BitVec 64))
(declare-fun temp934_18 () (_ BitVec 64))
(declare-fun temp934_19 () (_ BitVec 64))
(declare-fun temp934_20 () (_ BitVec 64))
(declare-fun temp934_21 () (_ BitVec 64))
(declare-fun temp934_22 () (_ BitVec 64))
(declare-fun temp934_23 () (_ BitVec 64))
(declare-fun temp934_24 () (_ BitVec 64))
(declare-fun temp934_25 () (_ BitVec 64))
(declare-fun temp934_26 () (_ BitVec 64))
(declare-fun temp934_27 () (_ BitVec 64))
(declare-fun temp934_28 () (_ BitVec 64))
(declare-fun ARGNAME_weight_NAMEEND_DIM () (_ BitVec 64))
(declare-fun temp934_29 () (_ BitVec 64))
(declare-fun temp934_30 () (_ BitVec 64))
(declare-fun var921553 () (_ BitVec 64))
(declare-fun var2690473 () (_ BitVec 64))
(declare-fun temp934_31 () (_ BitVec 64))
(declare-fun var3280385 () (_ BitVec 64))
(declare-fun temp934_33 () (_ BitVec 64))
(declare-fun temp934_32 () (_ BitVec 64))
(declare-fun temp934_34 () (_ BitVec 64))
(declare-fun var4330259 () (_ BitVec 64))
(declare-fun temp934_35 () (_ BitVec 64))
(declare-fun temp934_36 () (_ BitVec 64))
(declare-fun var4330260 () (_ BitVec 64))
(declare-fun var4330267 () (_ BitVec 64))
(declare-fun var4330273 () (_ BitVec 64))
(declare-fun temp934_37 () (_ BitVec 64))
(declare-fun var4330274 () (_ BitVec 64))
(declare-fun temp934_38 () (_ BitVec 64))
(declare-fun temp934_39 () (_ BitVec 64))
(declare-fun var4330275 () (_ BitVec 64))
(declare-fun var4330282 () (_ BitVec 64))
(declare-fun temp934_41 () (_ BitVec 64))
(declare-fun temp934_40 () (_ BitVec 64))
(declare-fun temp934_42 () (_ BitVec 64))
(declare-fun ARGNAME_reduction_NAMEEND () (_ BitVec 64))
(assert (= var267855
   (ite (= ARGNAME_input_NAMEEND_DIM ARGNAME_target_NAMEEND_DIM)
        #x0000000000000001
        #x0000000000000000)))
(assert (= temp934_1 #x0000000000000001))
(assert (= var267855 temp934_1))
(assert (= temp934_2 #x0000000000000000))
(assert (= var70865
   (ite (bvsgt ARGNAME_label_smoothing_NAMEEND temp934_2)
        #x0000000000000001
        #x0000000000000000)))
(assert (= temp934_3 #x0000000000000001))
(assert (= var70865 temp934_3))
(assert (= temp934_4 #x0000000000000001))
(assert (= var70867
   (ite (bvsgt ARGNAME_label_smoothing_NAMEEND temp934_4)
        #x0000000000000001
        #x0000000000000000)))
(assert (= temp934_5 #x0000000000000000))
(assert (= var70867 temp934_5))
(assert (= temp934_6 #x0000000000000001))
(assert (= var921507
   (ite (distinct ARGNAME_input_NAMEEND_DIM temp934_6)
        #x0000000000000001
        #x0000000000000000)))
(assert (= var921510 var921507))
(assert (= var1117505 var921510))
(assert (= temp934_8 #x0000000000000001))
(assert (= temp934_7 temp934_8))
(assert (= temp934_9 #x0000000000000000))
(assert (= var917872 temp934_9))
(assert (= temp934_10 #x0000000000000000))
(assert (= temp934_11 temp934_10))
(assert (= temp934_12 (select ARGNAME_weight_NAMEEND_DIMSIZE temp934_11)))
(assert (= temp934_13 #x0000000000000001))
(assert (= temp934_14 temp934_13))
(assert (= temp934_15 (select ARGNAME_weight_NAMEEND_DIMSIZE temp934_14)))
(assert (= temp934_16 #x0000000000000002))
(assert (= temp934_17 temp934_16))
(assert (= temp934_18 (select ARGNAME_weight_NAMEEND_DIMSIZE temp934_17)))
(assert (= temp934_19 #x0000000000000003))
(assert (= temp934_20 temp934_19))
(assert (= temp934_21 (select ARGNAME_weight_NAMEEND_DIMSIZE temp934_20)))
(assert (= temp934_22 #x0000000000000004))
(assert (= temp934_23 temp934_22))
(assert (= temp934_24 (select ARGNAME_weight_NAMEEND_DIMSIZE temp934_23)))
(assert (= temp934_25 #x0000000000000005))
(assert (= temp934_26 temp934_25))
(assert (= temp934_27 (select ARGNAME_weight_NAMEEND_DIMSIZE temp934_26)))
(assert (= temp934_28 #x0000000000000000))
(assert (= temp934_29
   (ite (bvslt var917872 temp934_28)
        (bvadd ARGNAME_weight_NAMEEND_DIM var917872)
        var917872)))
(assert (= temp934_30 (select ARGNAME_weight_NAMEEND_DIMSIZE temp934_29)))
(assert (= var921553 temp934_30))
(assert (bvslt (ite (bvslt var917872 temp934_28)
            (bvadd ARGNAME_weight_NAMEEND_DIM var917872)
            var917872)
       ARGNAME_weight_NAMEEND_DIM))
(assert (= var2690473 var921510))
(assert (= temp934_31 #x0000000000000000))
(assert (= var3280385 temp934_31))
(assert (= temp934_33 #x0000000000000001))
(assert (= temp934_32 temp934_33))
(assert (= temp934_34 #x0000000000000000))
(assert (= var4330259
   (ite (bvslt temp934_32 temp934_34) #x0000000000000001 #x0000000000000000)))
(assert (= temp934_35 #xffffffffffffffff))
(assert (= temp934_36 #x0000000000000000))
(assert (= var4330260 (ite (= var4330259 #x0000000000000001) temp934_35 temp934_36)))
(assert (= var4330267 var4330260))
(assert (= var4330273 var4330267))
(assert (= temp934_37 #x0000000000000000))
(assert (= var4330274
   (ite (bvslt var4330273 temp934_37) #x0000000000000001 #x0000000000000000)))
(assert (= temp934_38 #x0000000000000000))
(assert (= temp934_39 #xffffffffffffffff))
(assert (= var4330275 (ite (= var4330274 #x0000000000000001) temp934_38 temp934_39)))
(assert (= var4330282 var4330275))
(assert (= temp934_41 #x0000000000000005))
(assert (= temp934_40 temp934_41))
(assert (= temp934_42 #x0000000000000000))
(assert (or false (= ARGNAME_reduction_NAMEEND temp934_42)))
(model-add temp934_1 () (_ BitVec 64) #x0000000000000001)
(model-add var267855 () (_ BitVec 64) #x0000000000000001)
(model-del k!0)
(model-add ARGNAME_input_NAMEEND_DIM
           ()
           (_ BitVec 64)
           (ite k!0
                ARGNAME_target_NAMEEND_DIM
                (bvnot ARGNAME_target_NAMEEND_DIM)))



